language Essence 1.3
letting nnodes be 100
letting nrings be 50
letting capacity be 50
letting demand be 
{{1, 3},
{1, 5},
{1, 8},
{1, 9},
{1, 10},
{1, 11},
{1, 12},
{1, 14},
{1, 16},
{1, 17},
{1, 21},
{1, 22},
{1, 23},
{1, 24},
{1, 26},
{1, 29},
{1, 34},
{1, 35},
{1, 37},
{1, 39},
{1, 40},
{1, 41},
{1, 42},
{1, 43},
{1, 44},
{1, 45},
{1, 50},
{1, 53},
{1, 56},
{1, 58},
{1, 59},
{1, 60},
{1, 63},
{1, 64},
{1, 65},
{1, 66},
{1, 69},
{1, 70},
{1, 71},
{1, 72},
{1, 75},
{1, 76},
{1, 78},
{1, 80},
{1, 83},
{1, 84},
{1, 88},
{1, 89},
{1, 91},
{1, 93},
{1, 94},
{1, 96},
{1, 97},
{1, 98},
{1, 100},
{2, 7},
{2, 9},
{2, 11},
{2, 13},
{2, 15},
{2, 16},
{2, 17},
{2, 18},
{2, 19},
{2, 20},
{2, 21},
{2, 22},
{2, 24},
{2, 25},
{2, 26},
{2, 28},
{2, 29},
{2, 30},
{2, 32},
{2, 34},
{2, 35},
{2, 37},
{2, 38},
{2, 39},
{2, 40},
{2, 43},
{2, 44},
{2, 45},
{2, 46},
{2, 47},
{2, 48},
{2, 49},
{2, 52},
{2, 56},
{2, 57},
{2, 58},
{2, 59},
{2, 61},
{2, 64},
{2, 65},
{2, 66},
{2, 68},
{2, 69},
{2, 70},
{2, 71},
{2, 74},
{2, 77},
{2, 78},
{2, 79},
{2, 80},
{2, 81},
{2, 88},
{2, 91},
{2, 93},
{2, 94},
{2, 96},
{3, 8},
{3, 10},
{3, 11},
{3, 12},
{3, 14},
{3, 15},
{3, 20},
{3, 21},
{3, 24},
{3, 25},
{3, 27},
{3, 28},
{3, 32},
{3, 37},
{3, 40},
{3, 41},
{3, 42},
{3, 43},
{3, 45},
{3, 49},
{3, 50},
{3, 52},
{3, 55},
{3, 58},
{3, 61},
{3, 65},
{3, 66},
{3, 68},
{3, 70},
{3, 74},
{3, 75},
{3, 78},
{3, 79},
{3, 83},
{3, 84},
{3, 86},
{3, 87},
{3, 90},
{3, 91},
{3, 95},
{3, 97},
{3, 98},
{3, 100},
{4, 7},
{4, 8},
{4, 9},
{4, 10},
{4, 15},
{4, 17},
{4, 18},
{4, 19},
{4, 20},
{4, 21},
{4, 23},
{4, 25},
{4, 29},
{4, 32},
{4, 34},
{4, 36},
{4, 38},
{4, 39},
{4, 40},
{4, 41},
{4, 42},
{4, 46},
{4, 47},
{4, 48},
{4, 51},
{4, 52},
{4, 53},
{4, 57},
{4, 58},
{4, 65},
{4, 69},
{4, 70},
{4, 71},
{4, 72},
{4, 76},
{4, 78},
{4, 79},
{4, 80},
{4, 81},
{4, 88},
{4, 94},
{4, 95},
{4, 96},
{4, 97},
{4, 98},
{4, 99},
{4, 100},
{5, 7},
{5, 8},
{5, 9},
{5, 10},
{5, 11},
{5, 15},
{5, 16},
{5, 20},
{5, 21},
{5, 23},
{5, 24},
{5, 25},
{5, 27},
{5, 28},
{5, 29},
{5, 31},
{5, 32},
{5, 35},
{5, 39},
{5, 40},
{5, 44},
{5, 46},
{5, 50},
{5, 53},
{5, 54},
{5, 55},
{5, 58},
{5, 60},
{5, 63},
{5, 64},
{5, 65},
{5, 67},
{5, 70},
{5, 72},
{5, 73},
{5, 74},
{5, 76},
{5, 77},
{5, 82},
{5, 84},
{5, 85},
{5, 86},
{5, 90},
{5, 91},
{5, 92},
{5, 93},
{5, 94},
{5, 95},
{5, 97},
{5, 98},
{5, 100},
{6, 9},
{6, 10},
{6, 11},
{6, 13},
{6, 14},
{6, 15},
{6, 16},
{6, 17},
{6, 20},
{6, 25},
{6, 27},
{6, 28},
{6, 29},
{6, 31},
{6, 34},
{6, 37},
{6, 39},
{6, 48},
{6, 50},
{6, 52},
{6, 53},
{6, 54},
{6, 55},
{6, 57},
{6, 60},
{6, 62},
{6, 63},
{6, 67},
{6, 68},
{6, 69},
{6, 73},
{6, 74},
{6, 75},
{6, 76},
{6, 77},
{6, 79},
{6, 80},
{6, 81},
{6, 82},
{6, 83},
{6, 87},
{6, 92},
{6, 93},
{6, 94},
{6, 95},
{6, 98},
{6, 100},
{7, 9},
{7, 14},
{7, 15},
{7, 17},
{7, 21},
{7, 22},
{7, 32},
{7, 33},
{7, 34},
{7, 36},
{7, 37},
{7, 39},
{7, 40},
{7, 41},
{7, 42},
{7, 45},
{7, 47},
{7, 53},
{7, 55},
{7, 56},
{7, 57},
{7, 58},
{7, 60},
{7, 62},
{7, 63},
{7, 67},
{7, 69},
{7, 71},
{7, 72},
{7, 74},
{7, 75},
{7, 79},
{7, 82},
{7, 90},
{7, 93},
{7, 95},
{7, 97},
{8, 9},
{8, 12},
{8, 13},
{8, 15},
{8, 16},
{8, 18},
{8, 20},
{8, 22},
{8, 23},
{8, 24},
{8, 26},
{8, 27},
{8, 28},
{8, 31},
{8, 32},
{8, 33},
{8, 37},
{8, 38},
{8, 41},
{8, 42},
{8, 43},
{8, 45},
{8, 47},
{8, 50},
{8, 53},
{8, 55},
{8, 56},
{8, 60},
{8, 62},
{8, 64},
{8, 65},
{8, 66},
{8, 68},
{8, 69},
{8, 75},
{8, 77},
{8, 80},
{8, 81},
{8, 83},
{8, 84},
{8, 86},
{8, 87},
{8, 88},
{8, 89},
{8, 90},
{8, 91},
{8, 92},
{8, 94},
{8, 95},
{8, 96},
{8, 97},
{8, 98},
{8, 100},
{9, 13},
{9, 14},
{9, 17},
{9, 20},
{9, 22},
{9, 25},
{9, 28},
{9, 29},
{9, 30},
{9, 32},
{9, 34},
{9, 35},
{9, 37},
{9, 39},
{9, 43},
{9, 47},
{9, 48},
{9, 51},
{9, 52},
{9, 54},
{9, 55},
{9, 56},
{9, 58},
{9, 61},
{9, 63},
{9, 66},
{9, 70},
{9, 73},
{9, 74},
{9, 76},
{9, 78},
{9, 79},
{9, 80},
{9, 83},
{9, 87},
{9, 88},
{9, 90},
{9, 93},
{9, 97},
{10, 13},
{10, 17},
{10, 22},
{10, 23},
{10, 27},
{10, 31},
{10, 32},
{10, 36},
{10, 38},
{10, 39},
{10, 40},
{10, 42},
{10, 43},
{10, 45},
{10, 46},
{10, 48},
{10, 50},
{10, 51},
{10, 53},
{10, 56},
{10, 59},
{10, 60},
{10, 62},
{10, 64},
{10, 65},
{10, 67},
{10, 69},
{10, 70},
{10, 71},
{10, 74},
{10, 76},
{10, 77},
{10, 78},
{10, 83},
{10, 85},
{10, 86},
{10, 88},
{10, 89},
{10, 90},
{10, 91},
{10, 93},
{10, 94},
{10, 95},
{10, 97},
{10, 98},
{10, 99},
{11, 15},
{11, 17},
{11, 18},
{11, 20},
{11, 22},
{11, 23},
{11, 24},
{11, 25},
{11, 28},
{11, 29},
{11, 36},
{11, 39},
{11, 40},
{11, 42},
{11, 44},
{11, 48},
{11, 52},
{11, 54},
{11, 55},
{11, 59},
{11, 64},
{11, 65},
{11, 69},
{11, 70},
{11, 74},
{11, 75},
{11, 77},
{11, 78},
{11, 80},
{11, 81},
{11, 82},
{11, 84},
{11, 85},
{11, 86},
{11, 90},
{11, 92},
{11, 95},
{11, 96},
{11, 99},
{12, 13},
{12, 15},
{12, 16},
{12, 17},
{12, 18},
{12, 21},
{12, 23},
{12, 25},
{12, 26},
{12, 27},
{12, 28},
{12, 29},
{12, 33},
{12, 34},
{12, 37},
{12, 38},
{12, 39},
{12, 41},
{12, 42},
{12, 44},
{12, 48},
{12, 50},
{12, 57},
{12, 58},
{12, 60},
{12, 62},
{12, 65},
{12, 66},
{12, 71},
{12, 72},
{12, 73},
{12, 74},
{12, 76},
{12, 78},
{12, 79},
{12, 80},
{12, 82},
{12, 83},
{12, 84},
{12, 85},
{12, 87},
{12, 89},
{12, 91},
{12, 92},
{12, 94},
{12, 95},
{12, 97},
{13, 16},
{13, 17},
{13, 18},
{13, 24},
{13, 25},
{13, 27},
{13, 30},
{13, 32},
{13, 33},
{13, 34},
{13, 35},
{13, 36},
{13, 38},
{13, 39},
{13, 43},
{13, 46},
{13, 48},
{13, 49},
{13, 50},
{13, 53},
{13, 58},
{13, 59},
{13, 61},
{13, 63},
{13, 66},
{13, 67},
{13, 68},
{13, 69},
{13, 70},
{13, 81},
{13, 82},
{13, 83},
{13, 84},
{13, 86},
{13, 88},
{13, 89},
{13, 90},
{13, 91},
{13, 92},
{13, 93},
{13, 97},
{13, 98},
{14, 18},
{14, 19},
{14, 23},
{14, 24},
{14, 25},
{14, 26},
{14, 28},
{14, 29},
{14, 30},
{14, 31},
{14, 34},
{14, 35},
{14, 37},
{14, 38},
{14, 40},
{14, 41},
{14, 45},
{14, 46},
{14, 49},
{14, 51},
{14, 54},
{14, 55},
{14, 58},
{14, 60},
{14, 62},
{14, 63},
{14, 64},
{14, 65},
{14, 68},
{14, 69},
{14, 73},
{14, 74},
{14, 75},
{14, 78},
{14, 80},
{14, 81},
{14, 82},
{14, 87},
{14, 88},
{14, 92},
{14, 97},
{14, 99},
{14, 100},
{15, 16},
{15, 17},
{15, 18},
{15, 19},
{15, 20},
{15, 21},
{15, 22},
{15, 24},
{15, 26},
{15, 27},
{15, 28},
{15, 29},
{15, 30},
{15, 31},
{15, 32},
{15, 33},
{15, 35},
{15, 37},
{15, 39},
{15, 40},
{15, 44},
{15, 45},
{15, 47},
{15, 51},
{15, 54},
{15, 56},
{15, 58},
{15, 59},
{15, 62},
{15, 63},
{15, 68},
{15, 69},
{15, 70},
{15, 71},
{15, 74},
{15, 76},
{15, 82},
{15, 83},
{15, 85},
{15, 91},
{15, 92},
{15, 95},
{15, 96},
{15, 98},
{15, 99},
{15, 100},
{16, 18},
{16, 19},
{16, 23},
{16, 25},
{16, 26},
{16, 34},
{16, 38},
{16, 39},
{16, 41},
{16, 43},
{16, 44},
{16, 47},
{16, 48},
{16, 49},
{16, 50},
{16, 53},
{16, 54},
{16, 57},
{16, 61},
{16, 65},
{16, 67},
{16, 68},
{16, 72},
{16, 76},
{16, 77},
{16, 81},
{16, 84},
{16, 85},
{16, 88},
{16, 90},
{16, 92},
{16, 94},
{16, 98},
{16, 99},
{17, 18},
{17, 21},
{17, 24},
{17, 25},
{17, 27},
{17, 28},
{17, 30},
{17, 31},
{17, 34},
{17, 35},
{17, 37},
{17, 38},
{17, 39},
{17, 40},
{17, 42},
{17, 44},
{17, 45},
{17, 47},
{17, 48},
{17, 51},
{17, 53},
{17, 55},
{17, 57},
{17, 60},
{17, 62},
{17, 64},
{17, 66},
{17, 67},
{17, 68},
{17, 69},
{17, 70},
{17, 71},
{17, 72},
{17, 73},
{17, 74},
{17, 84},
{17, 85},
{17, 88},
{17, 90},
{17, 93},
{17, 95},
{17, 98},
{17, 99},
{18, 22},
{18, 23},
{18, 24},
{18, 26},
{18, 27},
{18, 31},
{18, 33},
{18, 36},
{18, 38},
{18, 40},
{18, 41},
{18, 43},
{18, 45},
{18, 48},
{18, 49},
{18, 50},
{18, 51},
{18, 53},
{18, 55},
{18, 56},
{18, 58},
{18, 62},
{18, 66},
{18, 67},
{18, 68},
{18, 70},
{18, 72},
{18, 75},
{18, 77},
{18, 79},
{18, 82},
{18, 83},
{18, 85},
{18, 87},
{18, 88},
{18, 91},
{18, 97},
{19, 23},
{19, 31},
{19, 32},
{19, 34},
{19, 35},
{19, 38},
{19, 39},
{19, 41},
{19, 42},
{19, 44},
{19, 46},
{19, 47},
{19, 48},
{19, 50},
{19, 51},
{19, 54},
{19, 61},
{19, 62},
{19, 63},
{19, 64},
{19, 65},
{19, 67},
{19, 68},
{19, 70},
{19, 72},
{19, 73},
{19, 75},
{19, 77},
{19, 78},
{19, 80},
{19, 83},
{19, 84},
{19, 85},
{19, 87},
{19, 88},
{19, 89},
{19, 90},
{19, 94},
{19, 97},
{19, 98},
{20, 22},
{20, 24},
{20, 25},
{20, 26},
{20, 27},
{20, 28},
{20, 29},
{20, 31},
{20, 32},
{20, 33},
{20, 34},
{20, 35},
{20, 38},
{20, 41},
{20, 43},
{20, 44},
{20, 45},
{20, 48},
{20, 51},
{20, 52},
{20, 55},
{20, 57},
{20, 61},
{20, 63},
{20, 65},
{20, 68},
{20, 70},
{20, 72},
{20, 73},
{20, 74},
{20, 75},
{20, 76},
{20, 78},
{20, 79},
{20, 80},
{20, 85},
{20, 87},
{20, 88},
{20, 89},
{20, 90},
{20, 91},
{20, 98},
{20, 99},
{20, 100},
{21, 22},
{21, 24},
{21, 26},
{21, 27},
{21, 28},
{21, 32},
{21, 33},
{21, 34},
{21, 38},
{21, 41},
{21, 44},
{21, 45},
{21, 46},
{21, 48},
{21, 50},
{21, 53},
{21, 54},
{21, 55},
{21, 56},
{21, 57},
{21, 59},
{21, 60},
{21, 63},
{21, 64},
{21, 67},
{21, 70},
{21, 71},
{21, 72},
{21, 74},
{21, 75},
{21, 77},
{21, 81},
{21, 82},
{21, 84},
{21, 87},
{21, 88},
{21, 91},
{21, 92},
{21, 94},
{21, 95},
{21, 97},
{21, 100},
{22, 23},
{22, 28},
{22, 30},
{22, 32},
{22, 34},
{22, 39},
{22, 40},
{22, 46},
{22, 47},
{22, 48},
{22, 50},
{22, 52},
{22, 53},
{22, 54},
{22, 55},
{22, 56},
{22, 64},
{22, 67},
{22, 68},
{22, 69},
{22, 70},
{22, 71},
{22, 72},
{22, 77},
{22, 79},
{22, 81},
{22, 82},
{22, 83},
{22, 86},
{22, 87},
{22, 88},
{22, 90},
{22, 92},
{22, 94},
{22, 95},
{22, 96},
{22, 97},
{22, 99},
{22, 100},
{23, 29},
{23, 30},
{23, 35},
{23, 40},
{23, 44},
{23, 48},
{23, 53},
{23, 54},
{23, 55},
{23, 59},
{23, 60},
{23, 61},
{23, 64},
{23, 65},
{23, 66},
{23, 68},
{23, 69},
{23, 70},
{23, 72},
{23, 73},
{23, 77},
{23, 78},
{23, 79},
{23, 80},
{23, 81},
{23, 86},
{23, 88},
{23, 89},
{23, 90},
{23, 91},
{23, 95},
{24, 26},
{24, 27},
{24, 28},
{24, 29},
{24, 30},
{24, 31},
{24, 33},
{24, 34},
{24, 41},
{24, 45},
{24, 46},
{24, 47},
{24, 48},
{24, 49},
{24, 52},
{24, 56},
{24, 58},
{24, 59},
{24, 60},
{24, 62},
{24, 63},
{24, 64},
{24, 65},
{24, 66},
{24, 70},
{24, 71},
{24, 72},
{24, 75},
{24, 76},
{24, 77},
{24, 78},
{24, 81},
{24, 82},
{24, 85},
{24, 88},
{24, 90},
{24, 91},
{24, 92},
{24, 93},
{24, 95},
{24, 96},
{24, 98},
{25, 26},
{25, 30},
{25, 31},
{25, 33},
{25, 34},
{25, 36},
{25, 38},
{25, 39},
{25, 42},
{25, 43},
{25, 44},
{25, 45},
{25, 47},
{25, 48},
{25, 49},
{25, 51},
{25, 52},
{25, 56},
{25, 57},
{25, 58},
{25, 60},
{25, 64},
{25, 65},
{25, 66},
{25, 67},
{25, 69},
{25, 70},
{25, 72},
{25, 73},
{25, 76},
{25, 77},
{25, 81},
{25, 82},
{25, 86},
{25, 87},
{25, 89},
{25, 90},
{25, 92},
{25, 93},
{25, 94},
{25, 99},
{25, 100},
{26, 28},
{26, 32},
{26, 33},
{26, 34},
{26, 36},
{26, 39},
{26, 40},
{26, 41},
{26, 42},
{26, 43},
{26, 44},
{26, 45},
{26, 50},
{26, 53},
{26, 56},
{26, 61},
{26, 62},
{26, 63},
{26, 64},
{26, 65},
{26, 66},
{26, 69},
{26, 72},
{26, 77},
{26, 78},
{26, 80},
{26, 81},
{26, 83},
{26, 84},
{26, 86},
{26, 88},
{26, 91},
{26, 94},
{26, 95},
{26, 96},
{26, 97},
{26, 98},
{26, 99},
{26, 100},
{27, 29},
{27, 31},
{27, 32},
{27, 33},
{27, 34},
{27, 35},
{27, 36},
{27, 37},
{27, 38},
{27, 39},
{27, 43},
{27, 47},
{27, 50},
{27, 55},
{27, 60},
{27, 63},
{27, 64},
{27, 66},
{27, 76},
{27, 80},
{27, 83},
{27, 85},
{27, 88},
{27, 95},
{27, 96},
{27, 97},
{27, 98},
{27, 99},
{28, 29},
{28, 30},
{28, 31},
{28, 32},
{28, 34},
{28, 36},
{28, 37},
{28, 39},
{28, 40},
{28, 41},
{28, 42},
{28, 43},
{28, 49},
{28, 51},
{28, 52},
{28, 54},
{28, 55},
{28, 60},
{28, 62},
{28, 65},
{28, 66},
{28, 67},
{28, 68},
{28, 69},
{28, 71},
{28, 74},
{28, 77},
{28, 78},
{28, 80},
{28, 81},
{28, 84},
{28, 85},
{28, 87},
{28, 88},
{28, 90},
{28, 93},
{28, 95},
{28, 96},
{28, 97},
{28, 98},
{28, 99},
{28, 100},
{29, 32},
{29, 33},
{29, 34},
{29, 38},
{29, 40},
{29, 43},
{29, 46},
{29, 47},
{29, 51},
{29, 52},
{29, 53},
{29, 55},
{29, 56},
{29, 57},
{29, 59},
{29, 63},
{29, 64},
{29, 65},
{29, 66},
{29, 76},
{29, 77},
{29, 78},
{29, 79},
{29, 81},
{29, 82},
{29, 85},
{29, 88},
{29, 91},
{29, 97},
{29, 100},
{30, 31},
{30, 32},
{30, 34},
{30, 37},
{30, 39},
{30, 40},
{30, 41},
{30, 44},
{30, 45},
{30, 48},
{30, 51},
{30, 53},
{30, 55},
{30, 56},
{30, 59},
{30, 63},
{30, 64},
{30, 65},
{30, 68},
{30, 70},
{30, 71},
{30, 72},
{30, 73},
{30, 79},
{30, 83},
{30, 85},
{30, 86},
{30, 87},
{30, 88},
{30, 92},
{30, 95},
{30, 97},
{30, 99},
{30, 100},
{31, 32},
{31, 34},
{31, 36},
{31, 38},
{31, 40},
{31, 41},
{31, 42},
{31, 44},
{31, 46},
{31, 48},
{31, 49},
{31, 51},
{31, 56},
{31, 57},
{31, 58},
{31, 60},
{31, 63},
{31, 64},
{31, 65},
{31, 67},
{31, 69},
{31, 71},
{31, 73},
{31, 78},
{31, 79},
{31, 80},
{31, 81},
{31, 86},
{31, 87},
{31, 88},
{31, 90},
{31, 93},
{31, 96},
{31, 97},
{31, 98},
{31, 99},
{31, 100},
{32, 35},
{32, 36},
{32, 40},
{32, 41},
{32, 44},
{32, 47},
{32, 50},
{32, 51},
{32, 52},
{32, 53},
{32, 55},
{32, 56},
{32, 58},
{32, 63},
{32, 64},
{32, 65},
{32, 67},
{32, 68},
{32, 73},
{32, 74},
{32, 76},
{32, 79},
{32, 84},
{32, 87},
{32, 89},
{32, 91},
{32, 92},
{32, 94},
{32, 96},
{32, 97},
{32, 99},
{33, 34},
{33, 36},
{33, 38},
{33, 41},
{33, 42},
{33, 43},
{33, 44},
{33, 47},
{33, 48},
{33, 51},
{33, 52},
{33, 60},
{33, 63},
{33, 64},
{33, 67},
{33, 69},
{33, 70},
{33, 78},
{33, 79},
{33, 80},
{33, 82},
{33, 84},
{33, 85},
{33, 86},
{33, 87},
{33, 89},
{33, 90},
{33, 92},
{33, 97},
{33, 98},
{33, 99},
{34, 35},
{34, 37},
{34, 38},
{34, 39},
{34, 40},
{34, 41},
{34, 42},
{34, 43},
{34, 45},
{34, 47},
{34, 48},
{34, 51},
{34, 54},
{34, 56},
{34, 60},
{34, 61},
{34, 63},
{34, 65},
{34, 66},
{34, 67},
{34, 68},
{34, 70},
{34, 71},
{34, 73},
{34, 74},
{34, 75},
{34, 77},
{34, 80},
{34, 81},
{34, 82},
{34, 86},
{34, 87},
{34, 88},
{34, 89},
{34, 90},
{34, 92},
{34, 95},
{34, 97},
{35, 36},
{35, 38},
{35, 39},
{35, 43},
{35, 44},
{35, 46},
{35, 47},
{35, 50},
{35, 51},
{35, 52},
{35, 54},
{35, 55},
{35, 57},
{35, 61},
{35, 62},
{35, 63},
{35, 65},
{35, 66},
{35, 67},
{35, 68},
{35, 70},
{35, 78},
{35, 80},
{35, 82},
{35, 84},
{35, 86},
{35, 91},
{35, 94},
{35, 95},
{35, 96},
{35, 97},
{35, 98},
{36, 38},
{36, 39},
{36, 43},
{36, 46},
{36, 49},
{36, 53},
{36, 54},
{36, 56},
{36, 58},
{36, 60},
{36, 61},
{36, 62},
{36, 64},
{36, 70},
{36, 71},
{36, 73},
{36, 76},
{36, 77},
{36, 78},
{36, 80},
{36, 81},
{36, 84},
{36, 85},
{36, 90},
{36, 93},
{36, 95},
{36, 96},
{36, 97},
{37, 45},
{37, 46},
{37, 48},
{37, 50},
{37, 51},
{37, 52},
{37, 53},
{37, 54},
{37, 57},
{37, 58},
{37, 59},
{37, 61},
{37, 63},
{37, 65},
{37, 67},
{37, 68},
{37, 73},
{37, 76},
{37, 78},
{37, 81},
{37, 82},
{37, 85},
{37, 86},
{37, 87},
{37, 88},
{37, 90},
{37, 96},
{37, 100},
{38, 39},
{38, 40},
{38, 42},
{38, 43},
{38, 45},
{38, 46},
{38, 50},
{38, 52},
{38, 53},
{38, 54},
{38, 56},
{38, 57},
{38, 59},
{38, 60},
{38, 61},
{38, 64},
{38, 65},
{38, 67},
{38, 68},
{38, 69},
{38, 70},
{38, 74},
{38, 79},
{38, 81},
{38, 86},
{38, 89},
{38, 91},
{38, 92},
{38, 95},
{38, 96},
{38, 100},
{39, 42},
{39, 44},
{39, 45},
{39, 46},
{39, 48},
{39, 51},
{39, 53},
{39, 56},
{39, 58},
{39, 59},
{39, 61},
{39, 62},
{39, 68},
{39, 69},
{39, 70},
{39, 71},
{39, 73},
{39, 75},
{39, 76},
{39, 80},
{39, 81},
{39, 82},
{39, 85},
{39, 87},
{39, 88},
{39, 90},
{39, 91},
{39, 93},
{39, 95},
{39, 98},
{39, 99},
{39, 100},
{40, 45},
{40, 46},
{40, 47},
{40, 48},
{40, 49},
{40, 51},
{40, 55},
{40, 56},
{40, 58},
{40, 59},
{40, 60},
{40, 61},
{40, 62},
{40, 64},
{40, 65},
{40, 68},
{40, 69},
{40, 72},
{40, 74},
{40, 76},
{40, 78},
{40, 80},
{40, 82},
{40, 83},
{40, 84},
{40, 86},
{40, 87},
{40, 89},
{40, 92},
{40, 95},
{40, 96},
{40, 99},
{41, 44},
{41, 46},
{41, 47},
{41, 50},
{41, 51},
{41, 54},
{41, 56},
{41, 61},
{41, 63},
{41, 64},
{41, 65},
{41, 66},
{41, 68},
{41, 69},
{41, 70},
{41, 72},
{41, 73},
{41, 79},
{41, 80},
{41, 85},
{41, 86},
{41, 88},
{41, 90},
{41, 93},
{41, 94},
{41, 95},
{41, 96},
{41, 97},
{41, 98},
{42, 43},
{42, 45},
{42, 46},
{42, 49},
{42, 53},
{42, 59},
{42, 63},
{42, 66},
{42, 67},
{42, 68},
{42, 70},
{42, 72},
{42, 76},
{42, 77},
{42, 79},
{42, 80},
{42, 82},
{42, 84},
{42, 87},
{42, 89},
{42, 90},
{42, 96},
{42, 97},
{43, 44},
{43, 46},
{43, 47},
{43, 48},
{43, 49},
{43, 52},
{43, 53},
{43, 55},
{43, 56},
{43, 59},
{43, 60},
{43, 61},
{43, 62},
{43, 63},
{43, 65},
{43, 66},
{43, 69},
{43, 70},
{43, 71},
{43, 72},
{43, 78},
{43, 79},
{43, 82},
{43, 84},
{43, 85},
{43, 88},
{43, 89},
{43, 90},
{43, 91},
{43, 95},
{43, 97},
{43, 98},
{43, 99},
{43, 100},
{44, 45},
{44, 46},
{44, 47},
{44, 48},
{44, 51},
{44, 53},
{44, 59},
{44, 61},
{44, 62},
{44, 63},
{44, 66},
{44, 69},
{44, 72},
{44, 73},
{44, 76},
{44, 77},
{44, 78},
{44, 83},
{44, 87},
{44, 89},
{44, 90},
{44, 96},
{44, 98},
{44, 100},
{45, 47},
{45, 49},
{45, 51},
{45, 53},
{45, 54},
{45, 57},
{45, 58},
{45, 60},
{45, 61},
{45, 64},
{45, 66},
{45, 67},
{45, 68},
{45, 71},
{45, 74},
{45, 75},
{45, 76},
{45, 77},
{45, 79},
{45, 81},
{45, 84},
{45, 85},
{45, 87},
{45, 92},
{45, 94},
{45, 97},
{45, 99},
{45, 100},
{46, 49},
{46, 52},
{46, 54},
{46, 59},
{46, 60},
{46, 62},
{46, 64},
{46, 66},
{46, 67},
{46, 70},
{46, 72},
{46, 73},
{46, 74},
{46, 75},
{46, 78},
{46, 79},
{46, 80},
{46, 83},
{46, 84},
{46, 86},
{46, 89},
{46, 90},
{46, 91},
{46, 96},
{46, 98},
{46, 99},
{47, 48},
{47, 49},
{47, 50},
{47, 54},
{47, 55},
{47, 56},
{47, 57},
{47, 60},
{47, 62},
{47, 64},
{47, 67},
{47, 70},
{47, 72},
{47, 74},
{47, 75},
{47, 78},
{47, 80},
{47, 82},
{47, 84},
{47, 89},
{47, 92},
{47, 93},
{47, 94},
{47, 95},
{47, 96},
{47, 98},
{47, 99},
{48, 49},
{48, 50},
{48, 51},
{48, 56},
{48, 61},
{48, 62},
{48, 66},
{48, 67},
{48, 69},
{48, 76},
{48, 79},
{48, 80},
{48, 84},
{48, 85},
{48, 89},
{48, 91},
{48, 92},
{48, 93},
{48, 97},
{49, 50},
{49, 53},
{49, 54},
{49, 58},
{49, 59},
{49, 60},
{49, 61},
{49, 63},
{49, 65},
{49, 70},
{49, 71},
{49, 72},
{49, 73},
{49, 74},
{49, 78},
{49, 81},
{49, 82},
{49, 83},
{49, 84},
{49, 86},
{49, 89},
{49, 91},
{49, 93},
{49, 95},
{49, 96},
{49, 97},
{49, 99},
{49, 100},
{50, 51},
{50, 53},
{50, 55},
{50, 56},
{50, 57},
{50, 62},
{50, 64},
{50, 65},
{50, 66},
{50, 67},
{50, 74},
{50, 75},
{50, 77},
{50, 79},
{50, 80},
{50, 81},
{50, 83},
{50, 85},
{50, 91},
{50, 93},
{50, 94},
{50, 95},
{50, 96},
{50, 98},
{50, 99},
{51, 52},
{51, 53},
{51, 55},
{51, 56},
{51, 57},
{51, 63},
{51, 64},
{51, 65},
{51, 68},
{51, 69},
{51, 71},
{51, 72},
{51, 74},
{51, 76},
{51, 78},
{51, 83},
{51, 85},
{51, 88},
{51, 89},
{51, 93},
{51, 94},
{51, 95},
{51, 96},
{51, 97},
{51, 98},
{52, 53},
{52, 55},
{52, 57},
{52, 58},
{52, 59},
{52, 61},
{52, 62},
{52, 64},
{52, 65},
{52, 69},
{52, 70},
{52, 72},
{52, 74},
{52, 78},
{52, 80},
{52, 81},
{52, 86},
{52, 88},
{52, 89},
{52, 90},
{52, 91},
{52, 92},
{52, 95},
{52, 96},
{53, 55},
{53, 60},
{53, 62},
{53, 63},
{53, 64},
{53, 65},
{53, 66},
{53, 67},
{53, 68},
{53, 70},
{53, 71},
{53, 74},
{53, 76},
{53, 77},
{53, 80},
{53, 81},
{53, 82},
{53, 83},
{53, 84},
{53, 85},
{53, 86},
{53, 88},
{53, 90},
{53, 92},
{53, 93},
{53, 95},
{53, 96},
{53, 98},
{54, 57},
{54, 58},
{54, 60},
{54, 61},
{54, 66},
{54, 70},
{54, 73},
{54, 75},
{54, 76},
{54, 77},
{54, 78},
{54, 79},
{54, 85},
{54, 87},
{54, 88},
{54, 92},
{54, 93},
{54, 94},
{54, 95},
{54, 97},
{54, 99},
{55, 58},
{55, 59},
{55, 61},
{55, 62},
{55, 64},
{55, 66},
{55, 68},
{55, 69},
{55, 72},
{55, 75},
{55, 77},
{55, 78},
{55, 80},
{55, 81},
{55, 82},
{55, 91},
{55, 93},
{55, 94},
{56, 59},
{56, 60},
{56, 62},
{56, 64},
{56, 67},
{56, 68},
{56, 69},
{56, 70},
{56, 72},
{56, 74},
{56, 77},
{56, 81},
{56, 82},
{56, 83},
{56, 84},
{56, 85},
{56, 87},
{56, 89},
{56, 90},
{56, 92},
{56, 93},
{56, 95},
{56, 96},
{56, 97},
{56, 99},
{57, 60},
{57, 61},
{57, 62},
{57, 63},
{57, 64},
{57, 65},
{57, 68},
{57, 71},
{57, 73},
{57, 77},
{57, 78},
{57, 80},
{57, 81},
{57, 82},
{57, 83},
{57, 86},
{57, 88},
{57, 89},
{57, 90},
{57, 92},
{57, 93},
{57, 95},
{57, 97},
{57, 100},
{58, 62},
{58, 63},
{58, 64},
{58, 65},
{58, 68},
{58, 69},
{58, 71},
{58, 72},
{58, 73},
{58, 74},
{58, 76},
{58, 82},
{58, 86},
{58, 87},
{58, 89},
{58, 90},
{58, 91},
{58, 93},
{58, 97},
{58, 98},
{59, 63},
{59, 64},
{59, 66},
{59, 67},
{59, 68},
{59, 71},
{59, 72},
{59, 73},
{59, 74},
{59, 80},
{59, 82},
{59, 85},
{59, 86},
{59, 87},
{59, 89},
{59, 93},
{59, 94},
{59, 95},
{59, 97},
{59, 98},
{59, 99},
{60, 61},
{60, 62},
{60, 63},
{60, 65},
{60, 66},
{60, 69},
{60, 71},
{60, 77},
{60, 78},
{60, 80},
{60, 82},
{60, 85},
{60, 86},
{60, 87},
{60, 88},
{60, 89},
{60, 90},
{60, 91},
{60, 92},
{60, 94},
{60, 95},
{60, 96},
{60, 97},
{60, 98},
{60, 100},
{61, 62},
{61, 63},
{61, 65},
{61, 66},
{61, 71},
{61, 74},
{61, 75},
{61, 76},
{61, 81},
{61, 83},
{61, 86},
{61, 87},
{61, 89},
{61, 91},
{61, 93},
{61, 96},
{61, 97},
{62, 63},
{62, 71},
{62, 73},
{62, 78},
{62, 79},
{62, 80},
{62, 81},
{62, 82},
{62, 86},
{62, 87},
{62, 90},
{62, 91},
{62, 92},
{62, 93},
{62, 94},
{62, 95},
{62, 96},
{62, 98},
{62, 99},
{63, 64},
{63, 67},
{63, 68},
{63, 71},
{63, 72},
{63, 73},
{63, 75},
{63, 76},
{63, 80},
{63, 84},
{63, 91},
{63, 92},
{63, 94},
{63, 95},
{63, 96},
{63, 97},
{63, 98},
{64, 65},
{64, 66},
{64, 69},
{64, 73},
{64, 75},
{64, 76},
{64, 77},
{64, 78},
{64, 79},
{64, 80},
{64, 87},
{64, 90},
{64, 91},
{64, 92},
{64, 93},
{64, 96},
{65, 69},
{65, 74},
{65, 80},
{65, 81},
{65, 82},
{65, 83},
{65, 84},
{65, 85},
{65, 86},
{65, 87},
{65, 88},
{65, 89},
{65, 90},
{65, 91},
{65, 92},
{65, 93},
{65, 96},
{65, 97},
{65, 98},
{66, 67},
{66, 69},
{66, 71},
{66, 72},
{66, 73},
{66, 74},
{66, 75},
{66, 76},
{66, 78},
{66, 79},
{66, 81},
{66, 82},
{66, 85},
{66, 86},
{66, 88},
{66, 89},
{66, 91},
{66, 92},
{66, 93},
{66, 95},
{66, 96},
{66, 97},
{66, 98},
{66, 99},
{67, 68},
{67, 70},
{67, 73},
{67, 75},
{67, 76},
{67, 77},
{67, 80},
{67, 81},
{67, 82},
{67, 84},
{67, 85},
{67, 87},
{67, 92},
{67, 93},
{67, 94},
{67, 96},
{67, 98},
{67, 100},
{68, 69},
{68, 70},
{68, 72},
{68, 74},
{68, 75},
{68, 77},
{68, 79},
{68, 82},
{68, 83},
{68, 86},
{68, 88},
{68, 90},
{68, 91},
{68, 92},
{68, 93},
{68, 94},
{68, 96},
{68, 100},
{69, 71},
{69, 72},
{69, 73},
{69, 76},
{69, 77},
{69, 78},
{69, 83},
{69, 84},
{69, 85},
{69, 86},
{69, 89},
{69, 90},
{69, 93},
{69, 94},
{69, 97},
{69, 98},
{70, 71},
{70, 72},
{70, 75},
{70, 76},
{70, 78},
{70, 79},
{70, 80},
{70, 81},
{70, 82},
{70, 84},
{70, 85},
{70, 87},
{70, 89},
{70, 90},
{70, 94},
{70, 95},
{70, 96},
{70, 97},
{70, 98},
{70, 100},
{71, 72},
{71, 73},
{71, 76},
{71, 79},
{71, 81},
{71, 82},
{71, 83},
{71, 84},
{71, 85},
{71, 86},
{71, 88},
{71, 89},
{71, 93},
{71, 96},
{71, 98},
{71, 99},
{71, 100},
{72, 74},
{72, 77},
{72, 78},
{72, 82},
{72, 85},
{72, 86},
{72, 87},
{72, 88},
{72, 94},
{72, 96},
{72, 99},
{72, 100},
{73, 77},
{73, 79},
{73, 82},
{73, 84},
{73, 87},
{73, 90},
{73, 91},
{73, 94},
{73, 95},
{73, 99},
{73, 100},
{74, 76},
{74, 79},
{74, 84},
{74, 86},
{74, 87},
{74, 88},
{74, 89},
{74, 90},
{74, 91},
{74, 92},
{74, 93},
{74, 94},
{74, 95},
{74, 97},
{74, 98},
{74, 99},
{74, 100},
{75, 76},
{75, 78},
{75, 82},
{75, 83},
{75, 88},
{75, 89},
{75, 90},
{75, 94},
{75, 95},
{75, 98},
{76, 77},
{76, 78},
{76, 79},
{76, 82},
{76, 84},
{76, 85},
{76, 86},
{76, 89},
{76, 90},
{76, 91},
{76, 93},
{76, 94},
{76, 99},
{77, 79},
{77, 80},
{77, 90},
{77, 92},
{77, 93},
{77, 94},
{77, 98},
{77, 99},
{78, 79},
{78, 81},
{78, 84},
{78, 85},
{78, 86},
{78, 87},
{78, 88},
{78, 90},
{78, 93},
{78, 94},
{78, 95},
{78, 96},
{78, 99},
{79, 80},
{79, 81},
{79, 83},
{79, 87},
{79, 90},
{79, 93},
{79, 94},
{79, 96},
{80, 83},
{80, 84},
{80, 86},
{80, 89},
{80, 93},
{80, 94},
{80, 98},
{80, 99},
{81, 82},
{81, 83},
{81, 85},
{81, 92},
{81, 94},
{81, 96},
{81, 98},
{82, 89},
{82, 90},
{82, 92},
{82, 93},
{82, 95},
{82, 99},
{83, 84},
{83, 86},
{83, 87},
{83, 88},
{83, 89},
{83, 92},
{83, 93},
{83, 95},
{83, 99},
{83, 100},
{84, 85},
{84, 88},
{84, 89},
{84, 91},
{84, 92},
{84, 93},
{84, 94},
{84, 95},
{84, 96},
{84, 98},
{84, 99},
{84, 100},
{85, 87},
{85, 88},
{85, 90},
{85, 92},
{85, 94},
{85, 97},
{85, 98},
{85, 100},
{86, 88},
{86, 89},
{86, 93},
{86, 95},
{86, 98},
{86, 100},
{87, 88},
{87, 92},
{87, 93},
{87, 94},
{87, 96},
{87, 100},
{88, 90},
{88, 91},
{88, 93},
{88, 98},
{88, 99},
{89, 90},
{89, 91},
{89, 96},
{89, 97},
{89, 98},
{89, 100},
{90, 91},
{90, 94},
{90, 95},
{90, 96},
{90, 99},
{91, 93},
{91, 95},
{91, 96},
{91, 98},
{91, 100},
{92, 93},
{92, 94},
{92, 96},
{92, 97},
{92, 98},
{92, 99},
{92, 100},
{93, 95},
{93, 97},
{94, 95},
{94, 96},
{94, 98},
{94, 99},
{95, 96},
{95, 98},
{96, 98},
{97, 98},
{97, 99},
{97, 100},
{98, 100}}
